K = 3;
V = 20;
edge_weight = [|0, -1, -1, -1, 78, -1, 52, -1, 60, -1, -1, 8, -1, -1, 100, -1, -1, -1, 24, 12|
-1, 0, -1, 82, -1, -1, 28, 98, 50, -1, 60, -1, -1, -1, -1, -1, -1, -1, 24, -1|
-1, 15, 0, 31, 28, -1, 90, 88, 89, -1, 27, -1, -1, 12, -1, -1, -1, 86, 52, -1|
-1, -1, 89, 0, -1, -1, -1, -1, -1, -1, 73, 18, -1, -1, -1, -1, -1, 37, -1, -1|
-1, 55, -1, -1, 0, -1, -1, 26, 93, -1, 9, 23, 73, 34, -1, -1, 67, -1, -1, -1|
-1, -1, -1, 77, 87, 0, -1, -1, -1, -1, 35, -1, -1, -1, 83, -1, -1, -1, -1, 82|
52, -1, 42, 18, 46, 65, 0, 93, 67, -1, -1, -1, 88, -1, -1, 67, -1, -1, -1, 82|
-1, -1, 35, 89, -1, 29, 2, 0, -1, -1, 72, -1, 88, -1, -1, -1, -1, -1, -1, -1|
-1, -1, 47, -1, -1, -1, -1, -1, 0, -1, -1, -1, 18, 28, 64, -1, -1, -1, -1, -1|
-1, -1, -1, -1, -1, -1, -1, -1, 67, 0, -1, 99, 70, -1, -1, 42, -1, -1, -1, -1|
-1, 76, 65, -1, -1, -1, -1, -1, -1, 66, 0, -1, 100, -1, -1, 99, -1, -1, -1, 83|
-1, -1, -1, 43, -1, -1, -1, 81, 47, -1, -1, 0, 92, -1, -1, 75, -1, 62, -1, -1|
-1, -1, -1, -1, 97, 11, -1, -1, -1, -1, 76, 48, 0, -1, 34, -1, 45, -1, 98, 17|
-1, -1, 82, -1, -1, -1, -1, -1, -1, -1, 91, -1, -1, 0, -1, 78, -1, -1, 55, -1|
74, 86, 69, 49, -1, 6, -1, -1, -1, -1, -1, 12, -1, -1, 0, 68, -1, -1, -1, -1|
-1, -1, -1, -1, -1, -1, -1, -1, -1, -1, -1, -1, -1, -1, 87, 0, 36, 28, 37, 90|
12, -1, 93, 21, 99, -1, -1, 49, -1, -1, -1, -1, -1, 72, -1, 15, 0, -1, -1, -1|
2, -1, -1, -1, 6, 35, -1, -1, -1, 54, -1, -1, -1, 19, -1, 80, -1, 0, -1, -1|
-1, -1, 76, -1, -1, 16, -1, -1, -1, -1, -1, -1, -1, 92, -1, -1, -1, 21, 0, -1|
48, -1, -1, -1, -1, 78, -1, -1, -1, 88, -1, -1, -1, -1, -1, -1, -1, -1, -1, 0|];
